593.77,63.41,72.42
559.8,67.26,76.82
616.39,61.08,69.76
539.82,69.75,79.66
574.13,65.58,74.9
576.49,65.31,74.59
600.8,62.67,71.57
611.4,61.58,70.33
561.85,67.01,76.54
559.79,67.26,76.82
635.46,59.25,67.67
554.81,67.86,77.51
568.14,66.27,75.69
566.6,66.45,75.89
566.15,66.51,75.95
568.95,66.18,75.58
556.2,67.69,77.31
576.78,65.28,74.56
702.84,53.57,61.18
571.14,65.92,75.29
